TCS_Benchmarks/redos_fix/regexlib1_output_distinct_256_255_32_0.txt
([^t&g;]*)([^t&;l]*)
([^t&g;]*)(\n?.*=(&quot;|')?(.*\.jpg)(&quot;|')?.*\n?)([^t&;l]*)